SPARKNaCl/why3-cvc5/sparknacl-hashing-rfsb509.adb_258_48_length_check2_1.smt2
;; produced by cvc5.drv ;;
(set-logic ALL)
(set-info :smt-lib-version 2.6)
;;; generated by SMT-LIB2 driver
;;; SMT-LIB2 driver: bit-vectors, common part
;;; SMT-LIB2: integer arithmetic
;; "pow2"
(declare-fun pow2 (Int) Int)

(declare-const two_power_size_minus_one Int)

;; "two_power_size_minus_one_val"
(assert (= two_power_size_minus_one (pow2 (- 8 1))))

;; "min"
(define-fun min ((x Int) (y Int)) Int
  (ite (<= x y) x y))

;; "max"
(define-fun max ((x Int) (y Int)) Int
  (ite (<= x y) y x))

;; "Min_r"
(assert (forall ((x Int) (y Int)) (=> (<= y x) (= (min x y) y))))

;; "Max_l"
(assert (forall ((x Int) (y Int)) (=> (<= y x) (= (max x y) x))))

;; "Min_comm"
(assert (forall ((x Int) (y Int)) (= (min x y) (min y x))))

;; "Max_comm"
(assert (forall ((x Int) (y Int)) (= (max x y) (max y x))))

;; "Min_assoc"
(assert
  (forall ((x Int) (y Int) (z Int)) (= (min (min x y) z) (min x (min y z)))))

;; "Max_assoc"
(assert
  (forall ((x Int) (y Int) (z Int)) (= (max (max x y) z) (max x (max y z)))))

(declare-const two_power_size_minus_one1 Int)

;; "two_power_size_minus_one_val"
(assert (= two_power_size_minus_one1 (pow2 (- 64 1))))

(declare-sort tinteger_32B 0)

;; "tinteger_32B'int"
(declare-fun tinteger_32Bqtint (tinteger_32B) Int)

;; "tinteger_32B'axiom"
(assert
  (forall ((i tinteger_32B))
    (and
      (<= (- 2147483648) (tinteger_32Bqtint i))
      (<= (tinteger_32Bqtint i) 2147483647))))

;; "in_range"
(define-fun in_range ((x Int)) Bool
  (and (<= (- 2147483648) x) (<= x 2147483647)))

;; "to_rep"
(define-fun to_rep ((x tinteger_32B)) Int
  (tinteger_32Bqtint x))

;; "of_rep"
(declare-fun of_rep (Int) tinteger_32B)

;; "inversion_axiom"
(assert
  (forall ((x tinteger_32B))
    (! (= (of_rep (to_rep x)) x) :pattern ((to_rep x)) )))

;; "range_axiom"
(assert
  (forall ((x tinteger_32B))
    (! (in_range (to_rep x)) :pattern ((to_rep x)) )))

;; "coerce_axiom"
(assert
  (forall ((x Int))
    (! (=> (in_range x) (= (to_rep (of_rep x)) x)) :pattern ((to_rep
                                                               (of_rep x))) )))

;; "in_range"
(define-fun in_range1 ((x Int)) Bool
  (and (<= 0 x) (<= x 2147483647)))

(declare-sort byte 0)

;; "to_rep"
(declare-fun to_rep1 (byte) (_ BitVec 8))

;; "of_rep"
(declare-fun of_rep1 ((_ BitVec 8)) byte)

;; "inversion_axiom"
(assert
  (forall ((x byte)) (! (= (of_rep1 (to_rep1 x)) x) :pattern ((to_rep1 x)) )))

;; "range_axiom"
(assert true)

;; "coerce_axiom"
(assert
  (forall ((x (_ BitVec 8)))
    (! (= (to_rep1 (of_rep1 x)) x) :pattern ((to_rep1 (of_rep1 x))) )))

(declare-sort map1 0)

;; "has_bounds"
(declare-fun has_bounds (map1
  Int
  Int) Bool)

;; "get"
(declare-fun get (map1
  Int) byte)

;; "slide"
(declare-fun slide (map1
  Int
  Int) map1)

;; "slide_eq"
(assert
  (forall ((a map1) (first Int))
    (! (= (slide a first first) a) :pattern ((slide a first first)) )))

;; "slide_def"
(assert
  (forall ((a map1) (old_first Int) (new_first Int))
    (! (and
         (forall ((i Int))
           (! (= (get (slide a old_first new_first) i) (get
                                                         a
                                                         (- i (- new_first old_first)))) :pattern (
           (get
             (slide a old_first new_first)
             i)) ))
         (forall ((new_last Int))
           (! (=>
                (has_bounds a old_first (- new_last (- new_first old_first)))
                (has_bounds (slide a old_first new_first) new_first new_last)) :pattern (
           (has_bounds
             (slide a old_first new_first)
             new_first
             new_last)) ))) :pattern ((slide a old_first new_first)) )))

;; "slice"
(declare-fun slice (map1
  Int
  Int) map1)

;; "slice_eq"
(assert
  (forall ((a map1) (f Int) (l Int))
    (! (=> (has_bounds a f l) (= (slice a f l) a)) :pattern ((slice a f l)
    (has_bounds a f l)) )))

;; "slice_slice"
(assert
  (forall ((a map1) (f1 Int) (l1 Int) (f2 Int) (l2 Int))
    (! (=>
         (and (<= f1 f2) (<= l2 l1))
         (= (slice (slice a f1 l1) f2 l2) (slice a f2 l2))) :pattern (
    (slice
      (slice a f1 l1)
      f2
      l2)) )))

;; "slice_def"
(assert
  (forall ((a map1) (f Int) (l Int))
    (! (forall ((i Int))
         (! (=> (and (<= f i) (<= i l)) (= (get (slice a f l) i) (get a i))) :pattern (
         (get
           (slice a f l)
           i)) :pattern ((get a i)) )) :pattern ((slice a f l)) )))

;; "slice_has_bounds"
(assert
  (forall ((a map1) (f Int) (l Int))
    (! (has_bounds (slice a f l) f l) :pattern ((has_bounds
                                                  (slice a f l)
                                                  f
                                                  l)) )))

(declare-datatypes ((t 0))
  (((tqtmk (rec__first tinteger_32B)(rec__last tinteger_32B)))))

;; "mk"
(declare-fun mk (Int
  Int) t)

;; "mk_def"
(assert
  (forall ((f Int) (l Int))
    (! (=>
         (in_range f)
         (=>
           (in_range l)
           (and
             (= (to_rep (rec__first (mk f l))) f)
             (= (to_rep (rec__last (mk f l))) l)))) :pattern ((mk f l)) )))

;; "dynamic_property"
(define-fun dynamic_property ((range_first Int) (range_last Int) (low Int) (high Int)) Bool
  (and
    (in_range low)
    (and
      (in_range high)
      (=> (<= low high) (and (in_range1 low) (in_range1 high))))))

(declare-datatypes ((us_t 0))
  (((us_tqtmk (elts map1)(rt t)))))

;; "to_array"
(define-fun to_array ((a us_t)) map1
  (elts a))

;; "of_array"
(define-fun of_array ((a map1) (f Int) (l Int)) us_t
  (us_tqtmk a (mk f l)))

;; "first"
(define-fun first ((a us_t)) Int
  (to_rep (rec__first (rt a))))

;; "last"
(define-fun last ((a us_t)) Int
  (to_rep (rec__last (rt a))))

;; "length"
(define-fun length ((a us_t)) Int
  (ite (<= (first a) (last a)) (+ (- (last a) (first a)) 1) 0))

;; "well_formed"
(define-fun well_formed ((a us_t)) Bool
  (has_bounds
    (elts a)
    (to_rep (rec__first (rt a)))
    (to_rep (rec__last (rt a)))))

(declare-sort us_main_type 0)

(declare-datatypes ((us_split_fields 0))
  (((us_split_fieldsqtmk
    (rec__ada___sparknacl__aes__aes128_key us_main_type)))))

(declare-datatypes ((us_rep 0))
  (((us_repqtmk (us_split_fields1 us_split_fields)))))

(declare-sort us_main_type1 0)

(declare-datatypes ((us_split_fields2 0))
  (((us_split_fieldsqtmk1
    (rec__ada___sparknacl__aes__aes128_round_keys us_main_type1)))))

(declare-datatypes ((us_rep1 0))
  (((us_repqtmk1 (us_split_fields3 us_split_fields2)))))

(declare-datatypes ((byte__init_wrapper 0))
  (((byte__init_wrapperqtmk (rec__value byte)(us_attr__init Bool)))))

(declare-sort map2 0)

;; "has_bounds"
(declare-fun has_bounds1 (map2
  Int
  Int) Bool)

;; "get"
(declare-fun get1 (map2
  Int) byte__init_wrapper)

;; "slice"
(declare-fun slice1 (map2
  Int
  Int) map2)

;; "slice_eq"
(assert
  (forall ((a map2) (f Int) (l Int))
    (! (=> (has_bounds1 a f l) (= (slice1 a f l) a)) :pattern ((slice1 a f l)
    (has_bounds1 a f l)) )))

;; "slice_slice"
(assert
  (forall ((a map2) (f1 Int) (l1 Int) (f2 Int) (l2 Int))
    (! (=>
         (and (<= f1 f2) (<= l2 l1))
         (= (slice1 (slice1 a f1 l1) f2 l2) (slice1 a f2 l2))) :pattern (
    (slice1
      (slice1 a f1 l1)
      f2
      l2)) )))

;; "slice_def"
(assert
  (forall ((a map2) (f Int) (l Int))
    (! (forall ((i Int))
         (! (=>
              (and (<= f i) (<= i l))
              (= (get1 (slice1 a f l) i) (get1 a i))) :pattern ((get1
                                                                  (slice1
                                                                    a
                                                                    f
                                                                    l)
                                                                  i)) :pattern (
         (get1
           a
           i)) )) :pattern ((slice1 a f l)) )))

;; "slice_has_bounds"
(assert
  (forall ((a map2) (f Int) (l Int))
    (! (has_bounds1 (slice1 a f l) f l) :pattern ((has_bounds1
                                                    (slice1 a f l)
                                                    f
                                                    l)) )))

;; "dynamic_invariant"
(define-fun dynamic_invariant ((temp___expr_371 map1) (temp___is_init_367 Bool) (temp___skip_constant_368 Bool) (temp___do_toplevel_369 Bool) (temp___do_typ_inv_370 Bool)) Bool
  (and
    (=>
      (= temp___is_init_367 true)
      (=>
        (= temp___do_toplevel_369 true)
        (= (bvand (to_rep1 (get temp___expr_371 63)) #xE0) #x00)))
    (has_bounds temp___expr_371 0 63)))

;; "in_range"
(define-fun in_range2 ((x Int)) Bool
  (and (<= 0 x) (<= x 47)))

(declare-const input us_t)

(declare-const key us_rep)

;; "key_expansion"
(declare-fun key_expansion (us_rep) us_rep1)

(declare-const round_keys us_rep1)

;; "convert"
(declare-fun convert (map1) map2)

;; "convert__def"
(assert
  (forall ((a map1))
    (let ((b (convert a)))
      (forall ((temp___170 Int))
        (and
          (= (us_attr__init
               (byte__init_wrapperqtmk
                 (of_rep1 (to_rep1 (get a temp___170)))
                 true)) (us_attr__init (get1 b temp___170)))
          (= (to_rep1
               (rec__value
                 (byte__init_wrapperqtmk
                   (of_rep1 (to_rep1 (get a temp___170)))
                   true))) (to_rep1 (rec__value (get1 b temp___170)))))))))

(declare-datatypes ((t1 0))
  (((tqtmk1 (rec__first1 tinteger_32B)(rec__last1 tinteger_32B)))))

;; "mk"
(declare-fun mk1 (Int
  Int) t1)

;; "mk_def"
(assert
  (forall ((f Int) (l Int))
    (! (=>
         (in_range f)
         (=>
           (in_range l)
           (and
             (= (to_rep (rec__first1 (mk1 f l))) f)
             (= (to_rep (rec__last1 (mk1 f l))) l)))) :pattern ((mk1 f l)) )))

(declare-datatypes ((us_t1 0))
  (((us_tqtmk1 (elts1 map2)(rt1 t1)))))

;; "of_array"
(define-fun of_array1 ((a map2) (f Int) (l Int)) us_t1
  (us_tqtmk1 a (mk1 f l)))

;; "dynamic_invariant"
(define-fun dynamic_invariant1 ((temp___expr_225 us_t) (temp___is_init_221 Bool) (temp___skip_constant_222 Bool) (temp___do_toplevel_223 Bool) (temp___do_typ_inv_224 Bool)) Bool
  (and
    (=>
      (not (= temp___skip_constant_222 true))
      (dynamic_property
        0
        2147483647
        (first temp___expr_225)
        (last temp___expr_225)))
    (well_formed temp___expr_225)))

;; "__is_initialized"
(define-fun us_is_initialized ((temp___expr_431 map2)) Bool
  (forall ((temp___432 Int))
    (=>
      (and (<= 0 temp___432) (<= temp___432 47))
      (= (us_attr__init (get1 temp___expr_431 temp___432)) true))))

;; "ada___ada___sparknacl__hashing__rfsb509__hash_local__hash__aggregate_def"
(declare-fun ada___ada___sparknacl__hashing__rfsb509__hash_local__hash__aggregate_def ((_ BitVec 8)) map1)

;; "temp_____aggregate_def_989"
(declare-fun temp_____aggregate_def_989 ((_ BitVec 8)
  Int
  Int) us_t)

;; "temp_____aggregate_def_1020"
(declare-fun temp_____aggregate_def_1020 ((_ BitVec 8)
  Int
  Int) us_t)

;; "key_expansion__post_axiom"
(assert true)

;; Goal "def'vc"
;; File "sparknacl-hashing-rfsb509.adb", line 68, characters 0-0
(assert
  (not
  (forall ((output map1) (block map2) (bytes_remaining Int) (block_index Int))
    (=>
      (has_bounds output 0 31)
      (=>
        (dynamic_invariant1 input true false true true)
        (=>
          (= (key_expansion key) round_keys)
          (forall ((temp___956 map1))
            (=>
              (and
                (and
                  (has_bounds temp___956 0 63)
                  (forall ((temp___955 Int))
                    (! (=>
                         (and (<= 0 temp___955) (<= temp___955 63))
                         (= (to_rep1 (get temp___956 temp___955)) #x00)) :pattern (
                    (get
                      temp___956
                      temp___955)) )))
                (= temp___956 (ada___ada___sparknacl__hashing__rfsb509__hash_local__hash__aggregate_def
                                #x00)))
              (=>
                (= (bvand (to_rep1 (get temp___956 63)) #xE0) #x00)
                (=>
                  (= (bvand (to_rep1 (get temp___956 63)) #xE0) #x00)
                  (forall ((hash map1))
                    (=>
                      (= hash temp___956)
                      (=>
                        (dynamic_invariant hash true false true true)
                        (=>
                          (has_bounds1 block 0 47)
                          (=>
                            (in_range2 bytes_remaining)
                            (=>
                              (in_range2 block_index)
                              (forall ((hash1 map1) (bytes_remaining1 Int))
                                (=>
                                  (and
                                    (<= bytes_remaining1 (length input))
                                    (and
                                      (dynamic_invariant
                                        hash1
                                        true
                                        true
                                        true
                                        true)
                                      (in_range2 bytes_remaining1)))
                                  (forall ((block_index1 Int))
                                    (=>
                                      (= block_index1 (+ 0 bytes_remaining1))
                                      (forall ((hash2 map1) (block1 map2) (block_index2 Int))
                                        (=>
                                          (exists ((spark__branch Bool))
                                            (and
                                              (= spark__branch (ite (< 0 bytes_remaining1)
                                                                 true
                                                                 false))
                                              (ite (= spark__branch true)
                                                (let ((temp___970 (last
                                                                    input)))
                                                  (let ((o (- (last input) bytes_remaining1)))
                                                    (and
                                                      (in_range o)
                                                      (let ((o1 (+ o 1)))
                                                        (and
                                                          (in_range o1)
                                                          (and
                                                            (=>
                                                              (<= o1 temp___970)
                                                              (and
                                                                (and
                                                                  (<= 
                                                                  (first
                                                                    input) o1)
                                                                  (<= o1 
                                                                  (last
                                                                    input)))
                                                                (and
                                                                  (<= 
                                                                  (first
                                                                    input) temp___970)
                                                                  (<= temp___970 
                                                                  (last
                                                                    input)))))
                                                            (and
                                                              (ite (<= o1 temp___970)
                                                                (and
                                                                  (<= 0 (- block_index1 1))
                                                                  (= (- temp___970 o1) (- (- block_index1 1) 0)))
                                                                (< (- block_index1 1) 0))
                                                              (let ((o2 (- block_index1 1)))
                                                                (let ((temp___977 (- block_index1 1)))
                                                                  (and
                                                                    (=>
                                                                    (<= 0 temp___977)
                                                                    (and
                                                                    (and
                                                                    (<= 0 0)
                                                                    (<= 0 47))
                                                                    (and
                                                                    (<= 0 temp___977)
                                                                    (<= temp___977 47))))
                                                                    (and
                                                                    (ite (<= 0 o2)
                                                                    (and
                                                                    (<= 0 temp___977)
                                                                    (= (- o2 0) (- temp___977 0)))
                                                                    (< temp___977 0))
                                                                    (exists 
                                                                    ((usf map2))
                                                                    (and
                                                                    (forall 
                                                                    ((temp___980 Int))
                                                                    (ite 
                                                                    (and
                                                                    (<= 0 temp___980)
                                                                    (<= temp___980 (- block_index1 1)))
                                                                    (= 
                                                                    (get1
                                                                    usf
                                                                    temp___980) 
                                                                    (get1
                                                                    (convert
                                                                    (slide
                                                                    (slice
                                                                    (to_array
                                                                    input)
                                                                    o1
                                                                    temp___970)
                                                                    o1
                                                                    0))
                                                                    temp___980))
                                                                    (= 
                                                                    (get1
                                                                    usf
                                                                    temp___980) 
                                                                    (get1
                                                                    block
                                                                    temp___980))))
                                                                    (exists 
                                                                    ((block2 map2))
                                                                    (and
                                                                    (= block2 usf)
                                                                    (exists 
                                                                    ((spark__branch1 Bool))
                                                                    (and
                                                                    (= spark__branch1 
                                                                    (ite (< 40 block_index1)
                                                                    true
                                                                    false))
                                                                    (ite (= spark__branch1 true)
                                                                    (exists 
                                                                    ((temp___993 us_t))
                                                                    (and
                                                                    (and
                                                                    (and
                                                                    (and
                                                                    (= 
                                                                    (first
                                                                    temp___993) block_index1)
                                                                    (= 
                                                                    (last
                                                                    temp___993) 47))
                                                                    (and
                                                                    (well_formed
                                                                    temp___993)
                                                                    (forall 
                                                                    ((temp___992 Int))
                                                                    (! 
                                                                    (=>
                                                                    (and
                                                                    (<= 
                                                                    (first
                                                                    temp___993) temp___992)
                                                                    (<= temp___992 
                                                                    (last
                                                                    temp___993)))
                                                                    (= 
                                                                    (to_rep1
                                                                    (get
                                                                    (to_array
                                                                    temp___993)
                                                                    temp___992)) #x00)) :pattern (
                                                                    (get
                                                                    (to_array
                                                                    temp___993)
                                                                    temp___992)) ))))
                                                                    (= temp___993 
                                                                    (temp_____aggregate_def_989
                                                                    #x00
                                                                    block_index1
                                                                    47)))
                                                                    (and
                                                                    (ite (<= 
                                                                    (first
                                                                    temp___993) 
                                                                    (last
                                                                    temp___993))
                                                                    (and
                                                                    (<= block_index1 47)
                                                                    (= (- 
                                                                    (last
                                                                    temp___993) 
                                                                    (first
                                                                    temp___993)) (- 47 block_index1)))
                                                                    (< 47 block_index1))
                                                                    (and
                                                                    (=>
                                                                    (<= block_index1 47)
                                                                    (and
                                                                    (and
                                                                    (<= 0 block_index1)
                                                                    (<= block_index1 47))
                                                                    (and
                                                                    (<= 0 47)
                                                                    (<= 47 47))))
                                                                    (and
                                                                    (ite (<= block_index1 47)
                                                                    (<= block_index1 47)
                                                                    (< 47 block_index1))
                                                                    (exists 
                                                                    ((usf1 map2))
                                                                    (and
                                                                    (forall 
                                                                    ((temp___1002 Int))
                                                                    (ite 
                                                                    (and
                                                                    (<= block_index1 temp___1002)
                                                                    (<= temp___1002 47))
                                                                    (= 
                                                                    (get1
                                                                    usf1
                                                                    temp___1002) 
                                                                    (get1
                                                                    (convert
                                                                    (slide
                                                                    (to_array
                                                                    temp___993)
                                                                    (first
                                                                    temp___993)
                                                                    block_index1))
                                                                    temp___1002))
                                                                    (= 
                                                                    (get1
                                                                    usf1
                                                                    temp___1002) 
                                                                    (get1
                                                                    block2
                                                                    temp___1002))))
                                                                    (and
                                                                    (= block1 usf1)
                                                                    (and
                                                                    (us_is_initialized
                                                                    block1)
                                                                    (and
                                                                    (dynamic_invariant
                                                                    hash2
                                                                    true
                                                                    true
                                                                    true
                                                                    true)
                                                                    (= block_index2 0)))))))))))
                                                                    (and
                                                                    (and
                                                                    (= hash2 hash1)
                                                                    (= block1 block2))
                                                                    (= block_index2 block_index1))))))))))))))))))))
                                                (and
                                                  (and
                                                    (= hash2 hash1)
                                                    (= block1 block))
                                                  (= block_index2 block_index1)))))
                                          (forall ((temp___1024 us_t))
                                            (=>
                                              (and
                                                (and
                                                  (and
                                                    (= (first temp___1024) block_index2)
                                                    (= (last temp___1024) 39))
                                                  (and
                                                    (well_formed temp___1024)
                                                    (forall ((temp___1023 Int))
                                                      (! (=>
                                                           (and
                                                             (<= (first
                                                                   temp___1024) temp___1023)
                                                             (<= temp___1023 
                                                             (last
                                                               temp___1024)))
                                                           (= (to_rep1
                                                                (get
                                                                  (to_array
                                                                    temp___1024)
                                                                  temp___1023)) #x00)) :pattern (
                                                      (get
                                                        (to_array
                                                          temp___1024)
                                                        temp___1023)) ))))
                                                (= temp___1024 (temp_____aggregate_def_1020
                                                                 #x00
                                                                 block_index2
                                                                 39)))
                                              (=>
                                                (<= (first temp___1024) 
                                                (last
                                                  temp___1024))
                                                (= (- (last temp___1024) 
                                                (first
                                                  temp___1024)) (- 39 block_index2)))))))))))))))))))))))))))

(check-sat)
